networks/zoo_40_304/zoo_40_304-lower.sol
<?xml version = "1.0" encoding="UTF-8" standalone="yes"?>
<CPLEXSolution version="1.2">
 <header
   problemName="networks/zoo_40_304/zoo_40_304-lower.lp"
   solutionName="incumbent"
   solutionIndex="-1"
   objectiveValue="20"
   solutionTypeValue="3"
   solutionTypeString="primal"
   solutionStatusValue="101"
   solutionStatusString="integer optimal solution"
   solutionMethodString="mip"
   primalFeasible="1"
   dualFeasible="1"
   MIPNodes="0"
   MIPIterations="0"
   writeLevel="3"/>
 <quality
   epInt="1.0000000000000001e-05"
   epRHS="9.9999999999999995e-07"
   maxIntInfeas="0"
   maxPrimalInfeas="0"
   maxX="1"
   maxSlack="1"/>
 <variables>
  <variable name="Y(1,3)" index="2" value="1"/>
  <variable name="Y(2,5)" index="44" value="1"/>
  <variable name="Y(3,6)" index="85" value="1"/>
  <variable name="Y(4,7)" index="126" value="1"/>
  <variable name="Y(5,9)" index="168" value="1"/>
  <variable name="Y(6,11)" index="210" value="1"/>
  <variable name="Y(7,13)" index="252" value="1"/>
  <variable name="Y(8,14)" index="293" value="1"/>
  <variable name="Y(9,15)" index="334" value="1"/>
  <variable name="Y(10,20)" index="379" value="1"/>
  <variable name="Y(11,1)" index="400" value="1"/>
  <variable name="Y(13,4)" index="483" value="1"/>
  <variable name="Y(17,8)" index="647" value="1"/>
  <variable name="Y(19,10)" index="729" value="1"/>
  <variable name="Y(21,12)" index="811" value="1"/>
  <variable name="Y(25,16)" index="975" value="1"/>
  <variable name="Y(26,17)" index="1016" value="1"/>
  <variable name="Y(27,18)" index="1057" value="1"/>
  <variable name="Y(28,19)" index="1098" value="1"/>
  <variable name="Y(31,2)" index="1201" value="1"/>
  <variable name="X(1,3,1)" index="12160" value="1"/>
  <variable name="X(1,21,11)" index="12474" value="1"/>
  <variable name="X(2,20,11)" index="12778" value="1"/>
  <variable name="X(2,22,31)" index="13102" value="1"/>
  <variable name="X(3,1,11)" index="13386" value="1"/>
  <variable name="X(3,4,13)" index="13692" value="1"/>
  <variable name="X(3,5,2)" index="13985" value="1"/>
  <variable name="X(3,11,6)" index="14293" value="1"/>
  <variable name="X(3,12,21)" index="14612" value="1"/>
  <variable name="X(3,14,5)" index="14900" value="1"/>
  <variable name="X(3,23,1)" index="15200" value="1"/>
  <variable name="X(4,3,49)" index="15552" value="1"/>
  <variable name="X(4,24,13)" index="15820" value="1"/>
  <variable name="X(5,3,11)" index="16122" value="1"/>
  <variable name="X(5,8,17)" index="16432" value="1"/>
  <variable name="X(5,13,7)" index="16726" value="1"/>
  <variable name="X(5,20,3)" index="17026" value="1"/>
  <variable name="X(5,25,2)" index="17329" value="1"/>
  <variable name="X(6,20,69)" index="17700" value="1"/>
  <variable name="X(6,26,3)" index="17938" value="1"/>
  <variable name="X(7,20,85)" index="18324" value="1"/>
  <variable name="X(7,27,4)" index="18547" value="1"/>
  <variable name="X(8,5,101)" index="18948" value="1"/>
  <variable name="X(8,28,17)" index="19168" value="1"/>
  <variable name="X(9,14,117)" index="19572" value="1"/>
  <variable name="X(9,29,5)" index="19764" value="1"/>
  <variable name="X(10,20,136)" index="20199" value="1"/>
  <variable name="X(10,30,19)" index="20386" value="1"/>
  <variable name="X(11,3,154)" index="20825" value="1"/>
  <variable name="X(11,31,6)" index="20981" value="1"/>
  <variable name="X(12,3,172)" index="21451" value="1"/>
  <variable name="X(12,32,21)" index="21604" value="1"/>
  <variable name="X(13,5,189)" index="22076" value="1"/>
  <variable name="X(13,33,7)" index="22198" value="1"/>
  <variable name="X(14,3,117)" index="22612" value="1"/>
  <variable name="X(14,9,5)" index="22804" value="1"/>
  <variable name="X(14,15,9)" index="23112" value="1"/>
  <variable name="X(14,16,25)" index="23432" value="1"/>
  <variable name="X(14,17,26)" index="23737" value="1"/>
  <variable name="X(14,20,118)" index="24133" value="1"/>
  <variable name="X(14,34,8)" index="24327" value="1"/>
  <variable name="X(15,14,224)" index="24847" value="1"/>
  <variable name="X(15,35,9)" index="24936" value="1"/>
  <variable name="X(16,36,25)" index="25256" value="1"/>
  <variable name="X(17,14,243)" index="25778" value="1"/>
  <variable name="X(17,37,26)" index="25865" value="1"/>
  <variable name="X(18,20,260)" index="26403" value="1"/>
  <variable name="X(18,38,27)" index="26474" value="1"/>
  <variable name="X(19,20,273)" index="27024" value="1"/>
  <variable name="X(19,39,28)" index="27083" value="1"/>
  <variable name="X(20,2,31)" index="27390" value="1"/>
  <variable name="X(20,5,11)" index="27674" value="1"/>
  <variable name="X(20,6,3)" index="27970" value="1"/>
  <variable name="X(20,7,4)" index="28275" value="1"/>
  <variable name="X(20,10,19)" index="28594" value="1"/>
  <variable name="X(20,14,18)" index="28897" value="1"/>
  <variable name="X(20,18,27)" index="29210" value="1"/>
  <variable name="X(20,19,28)" index="29515" value="1"/>
  <variable name="X(20,40,10)" index="29801" value="1"/>
 </variables>
</CPLEXSolution>
